\ENCODING=ISO-8859-1
\Problem name: LP/crossvalidation_paper/er_n=109_m=615_p=0.10_SET2_setparam=100.00_alpha=0.75_6

Maximize
 obj1: 100 x0 + 100 x1 + 100 x2 + 100 x3 + 100 x4 + 100 x5 + 100 x6 + 100 x7
       + 100 x8 + 100 x9 + 100 x10 + 100 x11 + 100 x12 + 100 x13 + 100 x14
       + 100 x15 + 100 x16 + 100 x17 + 100 x18 + 100 x19 + 100 x20 + 100 x21
       + 100 x22 + 100 x23 + 100 x24 + 100 x25 + 100 x26 + 100 x27 + 100 x28
       + 100 x29 + 100 x30 + 100 x31 + 100 x32 + 100 x33 + 100 x34 + 100 x35
       + 100 x36 + 100 x37 + 100 x38 + 100 x39 + 100 x40 + 100 x41 + 100 x42
       + 100 x43 + 100 x44 + 100 x45 + 100 x46 + 100 x47 + 100 x48 + 100 x49
       + 100 x50 + 100 x51 + 100 x52 + 100 x53 + 100 x54 + 100 x55 + 100 x56
       + 100 x57 + 100 x58 + 100 x59 + 100 x60 + 100 x61 + 100 x62 + 100 x63
       + 100 x64 + 100 x65 + 100 x66 + 100 x67 + 100 x68 + 100 x69 + 100 x70
       + 100 x71 + 100 x72 + 100 x73 + 100 x74 + 100 x75 + 100 x76 + 100 x77
       + 100 x78 + 100 x79 + 100 x80 + 100 x81 + 100 x82 + 100 x83 + 100 x84
       + 100 x85 + 100 x86 + 100 x87 + 100 x88 + 100 x89 + 100 x90 + 100 x91
       + 100 x92 + 100 x93 + 100 x94 + 100 x95 + 100 x96 + 100 x97 + 100 x98
       + 100 x99 + 100 x100 + 100 x101 + 100 x102 + 100 x103 + 100 x104
       + 100 x105 + 100 x106 + 100 x107 + 100 x108 - y35_88 - y4_36 - y11_90
       - y73_82 - y7_55 - y28_88 - y42_62 - y55_80 - y4_104 - y39_45 - y26_98
       - y47_93 - y53_106 - y71_78 - y1_54 - y25_49 - y43_98 - y0_45 - y57_59
       - y4_35 - y95_98 - y24_73 - y34_41 - y52_67 - y15_103 - y56_108 - y20_82
       - y1_21 - y80_85 - y44_107 - y91_101 - y8_45 - y50_108 - y24_80 - y23_40
       - y17_24 - y13_44 - y77_88 - y42_74 - y14_19 - y51_100 - y41_94 - y46_85
       - y18_72 - y4_11 - y60_93 - y25_37 - y2_33 - y5_20 - y82_104 - y8_58
       - y23_31 - y54_91 - y24_99 - y17_77 - y13_63 - y5_105 - y47_86 - y17_103
       - y13_25 - y0_50 - y46_70 - y55_105 - y51_57 - y73_100 - y70_101
       - y25_80 - y2_82 - y76_102 - y9_60 - y72_94 - y1_70 - y2_76 - y5_72
       - y13_56 - y31_82 - y20_85 - y41_72 - y58_101 - y19_67 - y85_107
       - y62_103 - y71_72 - y43_100 - y94_96 - y46_51 - y9_67 - y23_55 - y1_95
       - y63_93 - y15_97 - y10_22 - y56_84 - y7_85 - y12_96 - y60_106 - y16_99
       - y25_56 - y21_66 - y44_101 - y33_72 - y5_15 - y20_41 - y45_95 - y32_60
       - y29_60 - y70_105 - y72_76 - y17_30 - y79_92 - y51_102 - y12_31
       - y44_92 - y59_87 - y6_7 - y26_32 - y21_31 - y2_89 - y0_73 - y31_35
       - y48_83 - y29_47 - y55_87 - y1_101 - y22_104 - y65_73 - y26_103
       - y46_98 - y9_108 - y23_100 - y30_97 - y7_97 - y20_63 - y12_108 - y71_77
       - y57_76 - y34_86 - y32_74 - y63_98 - y71_107 - y6_16 - y63_72 - y88_90
       - y78_90 - y38_44 - y4_84 - y43_51 - y64_92 - y65_66 - y40_108 - y41_80
       - y12_107 - y21_71 - y34_81 - y84_91 - y63_107 - y62_79 - y9_65 - y25_95
       - y57_63 - y4_47 - y87_93 - y8_42 - y7_18 - y48_65 - y12_95 - y6_45
       - y9_13 - y75_81 - y90_91 - y49_93 - y31_69 - y76_83 - y24_25 - y3_105
       - y17_87 - y12_98 - y15_55 - y28_29 - y85_92 - y33_78 - y48_98 - y45_93
       - y19_22 - y2_34 - y37_64 - y1_86 - y72_84 - y4_90 - y18_53 - y51_104
       - y0_25 - y5_108 - y23_105 - y66_74 - y65_104 - y51_52 - y66_100
       - y38_101 - y34_93 - y43_106 - y22_56 - y98_105 - y3_32 - y2_87 - y15_75
       - y32_43 - y27_69 - y49_79 - y11_49 - y74_81 - y3_87 - y13_59 - y20_74
       - y7_69 - y33_102 - y1_29 - y65_97 - y8_86 - y105_107 - y10_84 - y25_84
       - y45_105 - y26_88 - y6_40 - y39_90 - y31_48 - y78_88 - y74_88 - y3_92
       - y28_76 - y1_22 - y44_76 - y7_88 - y41_86 - y43_88 - y14_87 - y12_67
       - y9_71 - y75_103 - y8_44 - y12_89 - y27_83 - y73_93 - y52_73 - y9_51
       - y53_83 - y28_75 - y9_21 - y28_97 - y12_28 - y53_103 - y8_68 - y58_82
       - y28_31 - y71_91 - y57_70 - y66_107 - y2_90 - y13_76 - y54_90 - y49_84
       - y11_58 - y52_100 - y22_85 - y46_95 - y46_65 - y20_60 - y18_92 - y21_49
       - y73_101 - y32_55 - y61_81 - y27_33 - y33_54 - y36_69 - y86_91 - y35_40
       - y38_41 - y3_89 - y65_77 - y67_83 - y85_108 - y24_53 - y25_48 - y4_6
       - y87_106 - y34_82 - y85_86 - y82_93 - y36_76 - y8_39 - y11_82 - y29_36
       - y73_90 - y53_72 - y64_80 - y28_100 - y24_60 - y47_67 - y46_53 - y61_99
       - y70_86 - y47_48 - y22_34 - y40_43 - y39_77 - y1_81 - y29_87 - y19_104
       - y44_47 - y42_75 - y38_61 - y10_16 - y17_75 - y56_90 - y41_93 - y66_79
       - y46_60 - y38_102 - y25_78 - y82_105 - y52_82 - y8_59 - y63_64 - y48_82
       - y37_39 - y38_52 - y12_63 - y29_100 - y0_29 - y42_92 - y46_93 - y83_107
       - y10_101 - y57_107 - y44_90 - y33_91 - y89_102 - y3_30 - y66_96 - y8_83
       - y3_36 - y62_71 - y81_82 - y95_102 - y31_41 - y35_42 - y6_53 - y35_48
       - y16_56 - y6_79 - y45_58 - y23_98 - y44_81 - y23_88 - y70_93 - y1_45
       - y58_63 - y32_38 - y97_104 - y11_84 - y49_68 - y13_86 - y37_41 - y63_92
       - y78_92 - y49_94 - y28_72 - y44_50 - y10_23 - y51_96 - y56_85 - y44_72
       - y83_95 - y92_104 - y14_91 - y20_42 - y18_102 - y50_107 - y6_39
       - y81_102 - y7_38 - y14_103 - y27_77 - y75_87 - y17_55 - y24_31 - y41_67
       - y83_100 - y68_77 - y0_62 - y92_103 - y18_97 - y45_87 - y80_101
       - y86_98 - y11_66 - y104_107 - y24_90 - y16_23 - y39_68 - y4_58 - y73_74
       - y9_56 - y53_88 - y54_94 - y51_72 - y0_96 - y77_78 - y17_100 - y44_84
       - y60_87 - y80_92 - y2_55 - y34_49 - y52_91 - y13_65 - y48_75 - y61_71
       - y33_44 - y39_91 - y51_81 - y101_103 - y13_91 - y78_91 - y20_106
       - y75_91 - y53_75 - y54_75 - y22_96 - y20_80 - y6_103 - y78_103 - y7_89
       - y57_84 - y4_40 - y2_40 - y24_78 - y81_99 - y30_63 - y50_72 - y17_60
       - y44_74 - y33_107 - y45_66 - y19_51 - y43_94 - y26_58 - y70_74 - y71_88
       - y9_73 - y34_67 - y27_79 - y10_50 - y19_108 - y20_102 - y14_20 - y17_79
       - y7_79 - y5_107 - y57_102 - y58_92 - y13_27 - y33_70 - y4_30
Subject To
 c1:   x0 + x5 <= 1
 c2:   x0 + x25 - y0_25 <= 1
 c3:   x0 + x29 - y0_29 <= 1
 c4:   x0 + x45 - y0_45 <= 1
 c5:   x0 + x50 - y0_50 <= 1
 c6:   x0 + x62 - y0_62 <= 1
 c7:   x0 + x64 <= 1
 c8:   x0 + x73 - y0_73 <= 1
 c9:   x0 + x90 <= 1
 c10:  x0 + x96 - y0_96 <= 1
 c11:  x1 + x19 <= 1
 c12:  x1 + x21 - y1_21 <= 1
 c13:  x1 + x22 - y1_22 <= 1
 c14:  x1 + x29 - y1_29 <= 1
 c15:  x1 + x45 - y1_45 <= 1
 c16:  x1 + x54 - y1_54 <= 1
 c17:  x1 + x70 - y1_70 <= 1
 c18:  x1 + x75 <= 1
 c19:  x1 + x81 - y1_81 <= 1
 c20:  x1 + x82 <= 1
 c21:  x1 + x86 - y1_86 <= 1
 c22:  x1 + x89 <= 1
 c23:  x1 + x95 - y1_95 <= 1
 c24:  x1 + x101 - y1_101 <= 1
 c25:  x1 + x102 <= 1
 c26:  x1 + x104 <= 1
 c27:  x2 + x33 - y2_33 <= 1
 c28:  x2 + x34 - y2_34 <= 1
 c29:  x2 + x40 - y2_40 <= 1
 c30:  x2 + x55 - y2_55 <= 1
 c31:  x2 + x76 - y2_76 <= 1
 c32:  x2 + x78 <= 1
 c33:  x2 + x82 - y2_82 <= 1
 c34:  x2 + x87 - y2_87 <= 1
 c35:  x2 + x89 - y2_89 <= 1
 c36:  x2 + x90 - y2_90 <= 1
 c37:  x2 + x91 <= 1
 c38:  x2 + x93 <= 1
 c39:  x3 + x30 - y3_30 <= 1
 c40:  x3 + x32 - y3_32 <= 1
 c41:  x3 + x36 - y3_36 <= 1
 c42:  x3 + x53 <= 1
 c43:  x3 + x63 <= 1
 c44:  x3 + x87 - y3_87 <= 1
 c45:  x3 + x89 - y3_89 <= 1
 c46:  x3 + x92 - y3_92 <= 1
 c47:  x3 + x105 - y3_105 <= 1
 c48:  x4 + x6 - y4_6 <= 1
 c49:  x4 + x11 - y4_11 <= 1
 c50:  x4 + x26 <= 1
 c51:  x4 + x30 - y4_30 <= 1
 c52:  x4 + x35 - y4_35 <= 1
 c53:  x4 + x36 - y4_36 <= 1
 c54:  x4 + x40 - y4_40 <= 1
 c55:  x4 + x47 - y4_47 <= 1
 c56:  x4 + x58 - y4_58 <= 1
 c57:  x4 + x84 - y4_84 <= 1
 c58:  x4 + x90 - y4_90 <= 1
 c59:  x4 + x103 <= 1
 c60:  x4 + x104 - y4_104 <= 1
 c61:  x5 + x15 - y5_15 <= 1
 c62:  x5 + x19 <= 1
 c63:  x5 + x20 - y5_20 <= 1
 c64:  x5 + x72 - y5_72 <= 1
 c65:  x5 + x85 <= 1
 c66:  x5 + x105 - y5_105 <= 1
 c67:  x5 + x107 - y5_107 <= 1
 c68:  x5 + x108 - y5_108 <= 1
 c69:  x6 + x7 - y6_7 <= 1
 c70:  x6 + x16 - y6_16 <= 1
 c71:  x6 + x36 <= 1
 c72:  x6 + x39 - y6_39 <= 1
 c73:  x6 + x40 - y6_40 <= 1
 c74:  x6 + x45 - y6_45 <= 1
 c75:  x6 + x53 - y6_53 <= 1
 c76:  x6 + x58 <= 1
 c77:  x6 + x79 - y6_79 <= 1
 c78:  x6 + x99 <= 1
 c79:  x6 + x100 <= 1
 c80:  x6 + x103 - y6_103 <= 1
 c81:  x6 + x108 <= 1
 c82:  x7 + x18 - y7_18 <= 1
 c83:  x7 + x27 <= 1
 c84:  x7 + x29 <= 1
 c85:  x7 + x38 - y7_38 <= 1
 c86:  x7 + x55 - y7_55 <= 1
 c87:  x7 + x69 - y7_69 <= 1
 c88:  x7 + x79 - y7_79 <= 1
 c89:  x7 + x85 - y7_85 <= 1
 c90:  x7 + x88 - y7_88 <= 1
 c91:  x7 + x89 - y7_89 <= 1
 c92:  x7 + x97 - y7_97 <= 1
 c93:  x8 + x13 <= 1
 c94:  x8 + x39 - y8_39 <= 1
 c95:  x8 + x42 - y8_42 <= 1
 c96:  x8 + x44 - y8_44 <= 1
 c97:  x8 + x45 - y8_45 <= 1
 c98:  x8 + x58 - y8_58 <= 1
 c99:  x8 + x59 - y8_59 <= 1
 c100: x8 + x68 - y8_68 <= 1
 c101: x8 + x80 <= 1
 c102: x8 + x83 - y8_83 <= 1
 c103: x8 + x86 - y8_86 <= 1
 c104: x8 + x106 <= 1
 c105: x9 + x13 - y9_13 <= 1
 c106: x9 + x21 - y9_21 <= 1
 c107: x9 + x51 - y9_51 <= 1
 c108: x9 + x56 - y9_56 <= 1
 c109: x9 + x60 - y9_60 <= 1
 c110: x9 + x65 - y9_65 <= 1
 c111: x9 + x67 - y9_67 <= 1
 c112: x9 + x70 <= 1
 c113: x9 + x71 - y9_71 <= 1
 c114: x9 + x73 - y9_73 <= 1
 c115: x9 + x89 <= 1
 c116: x9 + x106 <= 1
 c117: x9 + x108 - y9_108 <= 1
 c118: x10 + x16 - y10_16 <= 1
 c119: x10 + x22 - y10_22 <= 1
 c120: x10 + x23 - y10_23 <= 1
 c121: x10 + x50 - y10_50 <= 1
 c122: x10 + x53 <= 1
 c123: x10 + x69 <= 1
 c124: x10 + x84 - y10_84 <= 1
 c125: x10 + x101 - y10_101 <= 1
 c126: x11 + x49 - y11_49 <= 1
 c127: x11 + x58 - y11_58 <= 1
 c128: x11 + x66 - y11_66 <= 1
 c129: x11 + x69 <= 1
 c130: x11 + x82 - y11_82 <= 1
 c131: x11 + x84 - y11_84 <= 1
 c132: x11 + x90 - y11_90 <= 1
 c133: x11 + x97 <= 1
 c134: x11 + x101 <= 1
 c135: x12 + x28 - y12_28 <= 1
 c136: x12 + x31 - y12_31 <= 1
 c137: x12 + x42 <= 1
 c138: x12 + x63 - y12_63 <= 1
 c139: x12 + x67 - y12_67 <= 1
 c140: x12 + x72 <= 1
 c141: x12 + x78 <= 1
 c142: x12 + x89 - y12_89 <= 1
 c143: x12 + x95 - y12_95 <= 1
 c144: x12 + x96 - y12_96 <= 1
 c145: x12 + x98 - y12_98 <= 1
 c146: x12 + x107 - y12_107 <= 1
 c147: x12 + x108 - y12_108 <= 1
 c148: x13 + x25 - y13_25 <= 1
 c149: x13 + x27 - y13_27 <= 1
 c150: x13 + x44 - y13_44 <= 1
 c151: x13 + x56 - y13_56 <= 1
 c152: x13 + x59 - y13_59 <= 1
 c153: x13 + x63 - y13_63 <= 1
 c154: x13 + x65 - y13_65 <= 1
 c155: x13 + x72 <= 1
 c156: x13 + x76 - y13_76 <= 1
 c157: x13 + x86 - y13_86 <= 1
 c158: x13 + x91 - y13_91 <= 1
 c159: x13 + x102 <= 1
 c160: x14 + x19 - y14_19 <= 1
 c161: x14 + x20 - y14_20 <= 1
 c162: x14 + x28 <= 1
 c163: x14 + x65 <= 1
 c164: x14 + x71 <= 1
 c165: x14 + x87 - y14_87 <= 1
 c166: x14 + x91 - y14_91 <= 1
 c167: x14 + x101 <= 1
 c168: x14 + x103 - y14_103 <= 1
 c169: x15 + x18 <= 1
 c170: x15 + x51 <= 1
 c171: x15 + x55 - y15_55 <= 1
 c172: x15 + x63 <= 1
 c173: x15 + x75 - y15_75 <= 1
 c174: x15 + x97 - y15_97 <= 1
 c175: x15 + x103 - y15_103 <= 1
 c176: x16 + x23 - y16_23 <= 1
 c177: x16 + x43 <= 1
 c178: x16 + x52 <= 1
 c179: x16 + x56 - y16_56 <= 1
 c180: x16 + x78 <= 1
 c181: x16 + x99 - y16_99 <= 1
 c182: x16 + x101 <= 1
 c183: x17 + x24 - y17_24 <= 1
 c184: x17 + x25 <= 1
 c185: x17 + x30 - y17_30 <= 1
 c186: x17 + x45 <= 1
 c187: x17 + x55 - y17_55 <= 1
 c188: x17 + x60 - y17_60 <= 1
 c189: x17 + x72 <= 1
 c190: x17 + x75 - y17_75 <= 1
 c191: x17 + x77 - y17_77 <= 1
 c192: x17 + x79 - y17_79 <= 1
 c193: x17 + x87 - y17_87 <= 1
 c194: x17 + x100 - y17_100 <= 1
 c195: x17 + x103 - y17_103 <= 1
 c196: x18 + x33 <= 1
 c197: x18 + x34 <= 1
 c198: x18 + x52 <= 1
 c199: x18 + x53 - y18_53 <= 1
 c200: x18 + x72 - y18_72 <= 1
 c201: x18 + x92 - y18_92 <= 1
 c202: x18 + x97 - y18_97 <= 1
 c203: x18 + x102 - y18_102 <= 1
 c204: x19 + x22 - y19_22 <= 1
 c205: x19 + x51 - y19_51 <= 1
 c206: x19 + x67 - y19_67 <= 1
 c207: x19 + x104 - y19_104 <= 1
 c208: x19 + x108 - y19_108 <= 1
 c209: x20 + x41 - y20_41 <= 1
 c210: x20 + x42 - y20_42 <= 1
 c211: x20 + x60 - y20_60 <= 1
 c212: x20 + x63 - y20_63 <= 1
 c213: x20 + x74 - y20_74 <= 1
 c214: x20 + x80 - y20_80 <= 1
 c215: x20 + x82 - y20_82 <= 1
 c216: x20 + x85 - y20_85 <= 1
 c217: x20 + x102 - y20_102 <= 1
 c218: x20 + x106 - y20_106 <= 1
 c219: x21 + x31 - y21_31 <= 1
 c220: x21 + x37 <= 1
 c221: x21 + x49 - y21_49 <= 1
 c222: x21 + x66 - y21_66 <= 1
 c223: x21 + x71 - y21_71 <= 1
 c224: x22 + x34 - y22_34 <= 1
 c225: x22 + x56 - y22_56 <= 1
 c226: x22 + x72 <= 1
 c227: x22 + x85 - y22_85 <= 1
 c228: x22 + x96 - y22_96 <= 1
 c229: x22 + x104 - y22_104 <= 1
 c230: x23 + x31 - y23_31 <= 1
 c231: x23 + x40 - y23_40 <= 1
 c232: x23 + x55 - y23_55 <= 1
 c233: x23 + x71 <= 1
 c234: x23 + x88 - y23_88 <= 1
 c235: x23 + x98 - y23_98 <= 1
 c236: x23 + x100 - y23_100 <= 1
 c237: x23 + x105 - y23_105 <= 1
 c238: x23 + x107 <= 1
 c239: x24 + x25 - y24_25 <= 1
 c240: x24 + x31 - y24_31 <= 1
 c241: x24 + x46 <= 1
 c242: x24 + x53 - y24_53 <= 1
 c243: x24 + x60 - y24_60 <= 1
 c244: x24 + x73 - y24_73 <= 1
 c245: x24 + x78 - y24_78 <= 1
 c246: x24 + x80 - y24_80 <= 1
 c247: x24 + x89 <= 1
 c248: x24 + x90 - y24_90 <= 1
 c249: x24 + x99 - y24_99 <= 1
 c250: x25 + x37 - y25_37 <= 1
 c251: x25 + x48 - y25_48 <= 1
 c252: x25 + x49 - y25_49 <= 1
 c253: x25 + x56 - y25_56 <= 1
 c254: x25 + x71 <= 1
 c255: x25 + x78 - y25_78 <= 1
 c256: x25 + x80 - y25_80 <= 1
 c257: x25 + x83 <= 1
 c258: x25 + x84 - y25_84 <= 1
 c259: x25 + x95 - y25_95 <= 1
 c260: x26 + x32 - y26_32 <= 1
 c261: x26 + x33 <= 1
 c262: x26 + x58 - y26_58 <= 1
 c263: x26 + x88 - y26_88 <= 1
 c264: x26 + x98 - y26_98 <= 1
 c265: x26 + x103 - y26_103 <= 1
 c266: x26 + x104 <= 1
 c267: x27 + x33 - y27_33 <= 1
 c268: x27 + x48 <= 1
 c269: x27 + x58 <= 1
 c270: x27 + x69 - y27_69 <= 1
 c271: x27 + x77 - y27_77 <= 1
 c272: x27 + x79 - y27_79 <= 1
 c273: x27 + x83 - y27_83 <= 1
 c274: x28 + x29 - y28_29 <= 1
 c275: x28 + x31 - y28_31 <= 1
 c276: x28 + x33 <= 1
 c277: x28 + x59 <= 1
 c278: x28 + x70 <= 1
 c279: x28 + x72 - y28_72 <= 1
 c280: x28 + x75 - y28_75 <= 1
 c281: x28 + x76 - y28_76 <= 1
 c282: x28 + x77 <= 1
 c283: x28 + x88 - y28_88 <= 1
 c284: x28 + x92 <= 1
 c285: x28 + x97 - y28_97 <= 1
 c286: x28 + x100 - y28_100 <= 1
 c287: x28 + x107 <= 1
 c288: x29 + x36 - y29_36 <= 1
 c289: x29 + x47 - y29_47 <= 1
 c290: x29 + x60 - y29_60 <= 1
 c291: x29 + x87 - y29_87 <= 1
 c292: x29 + x100 - y29_100 <= 1
 c293: x29 + x102 <= 1
 c294: x30 + x63 - y30_63 <= 1
 c295: x30 + x79 <= 1
 c296: x30 + x90 <= 1
 c297: x30 + x97 - y30_97 <= 1
 c298: x30 + x108 <= 1
 c299: x31 + x35 - y31_35 <= 1
 c300: x31 + x41 - y31_41 <= 1
 c301: x31 + x48 - y31_48 <= 1
 c302: x31 + x69 - y31_69 <= 1
 c303: x31 + x82 - y31_82 <= 1
 c304: x31 + x101 <= 1
 c305: x32 + x38 - y32_38 <= 1
 c306: x32 + x43 - y32_43 <= 1
 c307: x32 + x55 - y32_55 <= 1
 c308: x32 + x60 - y32_60 <= 1
 c309: x32 + x74 - y32_74 <= 1
 c310: x33 + x44 - y33_44 <= 1
 c311: x33 + x49 <= 1
 c312: x33 + x54 - y33_54 <= 1
 c313: x33 + x70 - y33_70 <= 1
 c314: x33 + x72 - y33_72 <= 1
 c315: x33 + x78 - y33_78 <= 1
 c316: x33 + x91 - y33_91 <= 1
 c317: x33 + x102 - y33_102 <= 1
 c318: x33 + x107 - y33_107 <= 1
 c319: x34 + x39 <= 1
 c320: x34 + x41 - y34_41 <= 1
 c321: x34 + x49 - y34_49 <= 1
 c322: x34 + x64 <= 1
 c323: x34 + x67 - y34_67 <= 1
 c324: x34 + x72 <= 1
 c325: x34 + x80 <= 1
 c326: x34 + x81 - y34_81 <= 1
 c327: x34 + x82 - y34_82 <= 1
 c328: x34 + x86 - y34_86 <= 1
 c329: x34 + x93 - y34_93 <= 1
 c330: x34 + x94 <= 1
 c331: x35 + x40 - y35_40 <= 1
 c332: x35 + x42 - y35_42 <= 1
 c333: x35 + x46 <= 1
 c334: x35 + x48 - y35_48 <= 1
 c335: x35 + x54 <= 1
 c336: x35 + x77 <= 1
 c337: x35 + x88 - y35_88 <= 1
 c338: x35 + x101 <= 1
 c339: x36 + x50 <= 1
 c340: x36 + x52 <= 1
 c341: x36 + x69 - y36_69 <= 1
 c342: x36 + x76 - y36_76 <= 1
 c343: x37 + x39 - y37_39 <= 1
 c344: x37 + x41 - y37_41 <= 1
 c345: x37 + x62 <= 1
 c346: x37 + x64 - y37_64 <= 1
 c347: x38 + x41 - y38_41 <= 1
 c348: x38 + x44 - y38_44 <= 1
 c349: x38 + x52 - y38_52 <= 1
 c350: x38 + x61 - y38_61 <= 1
 c351: x38 + x64 <= 1
 c352: x38 + x79 <= 1
 c353: x38 + x101 - y38_101 <= 1
 c354: x38 + x102 - y38_102 <= 1
 c355: x39 + x45 - y39_45 <= 1
 c356: x39 + x52 <= 1
 c357: x39 + x56 <= 1
 c358: x39 + x68 - y39_68 <= 1
 c359: x39 + x70 <= 1
 c360: x39 + x77 - y39_77 <= 1
 c361: x39 + x85 <= 1
 c362: x39 + x90 - y39_90 <= 1
 c363: x39 + x91 - y39_91 <= 1
 c364: x39 + x93 <= 1
 c365: x39 + x107 <= 1
 c366: x40 + x43 - y40_43 <= 1
 c367: x40 + x82 <= 1
 c368: x40 + x108 - y40_108 <= 1
 c369: x41 + x65 <= 1
 c370: x41 + x67 - y41_67 <= 1
 c371: x41 + x72 - y41_72 <= 1
 c372: x41 + x80 - y41_80 <= 1
 c373: x41 + x86 - y41_86 <= 1
 c374: x41 + x93 - y41_93 <= 1
 c375: x41 + x94 - y41_94 <= 1
 c376: x42 + x62 - y42_62 <= 1
 c377: x42 + x74 - y42_74 <= 1
 c378: x42 + x75 - y42_75 <= 1
 c379: x42 + x86 <= 1
 c380: x42 + x92 - y42_92 <= 1
 c381: x42 + x93 <= 1
 c382: x43 + x51 - y43_51 <= 1
 c383: x43 + x88 - y43_88 <= 1
 c384: x43 + x94 - y43_94 <= 1
 c385: x43 + x98 - y43_98 <= 1
 c386: x43 + x100 - y43_100 <= 1
 c387: x43 + x103 <= 1
 c388: x43 + x106 - y43_106 <= 1
 c389: x44 + x47 - y44_47 <= 1
 c390: x44 + x50 - y44_50 <= 1
 c391: x44 + x51 <= 1
 c392: x44 + x72 - y44_72 <= 1
 c393: x44 + x74 - y44_74 <= 1
 c394: x44 + x76 - y44_76 <= 1
 c395: x44 + x81 - y44_81 <= 1
 c396: x44 + x84 - y44_84 <= 1
 c397: x44 + x89 <= 1
 c398: x44 + x90 - y44_90 <= 1
 c399: x44 + x92 - y44_92 <= 1
 c400: x44 + x97 <= 1
 c401: x44 + x101 - y44_101 <= 1
 c402: x44 + x105 <= 1
 c403: x44 + x107 - y44_107 <= 1
 c404: x45 + x58 - y45_58 <= 1
 c405: x45 + x62 <= 1
 c406: x45 + x66 - y45_66 <= 1
 c407: x45 + x74 <= 1
 c408: x45 + x87 - y45_87 <= 1
 c409: x45 + x93 - y45_93 <= 1
 c410: x45 + x95 - y45_95 <= 1
 c411: x45 + x105 - y45_105 <= 1
 c412: x46 + x51 - y46_51 <= 1
 c413: x46 + x53 - y46_53 <= 1
 c414: x46 + x60 - y46_60 <= 1
 c415: x46 + x62 <= 1
 c416: x46 + x65 - y46_65 <= 1
 c417: x46 + x67 <= 1
 c418: x46 + x70 - y46_70 <= 1
 c419: x46 + x85 - y46_85 <= 1
 c420: x46 + x93 - y46_93 <= 1
 c421: x46 + x95 - y46_95 <= 1
 c422: x46 + x98 - y46_98 <= 1
 c423: x47 + x48 - y47_48 <= 1
 c424: x47 + x66 <= 1
 c425: x47 + x67 - y47_67 <= 1
 c426: x47 + x86 - y47_86 <= 1
 c427: x47 + x93 - y47_93 <= 1
 c428: x47 + x94 <= 1
 c429: x47 + x105 <= 1
 c430: x48 + x65 - y48_65 <= 1
 c431: x48 + x75 - y48_75 <= 1
 c432: x48 + x82 - y48_82 <= 1
 c433: x48 + x83 - y48_83 <= 1
 c434: x48 + x98 - y48_98 <= 1
 c435: x48 + x103 <= 1
 c436: x48 + x104 <= 1
 c437: x49 + x62 <= 1
 c438: x49 + x68 - y49_68 <= 1
 c439: x49 + x79 - y49_79 <= 1
 c440: x49 + x84 - y49_84 <= 1
 c441: x49 + x93 - y49_93 <= 1
 c442: x49 + x94 - y49_94 <= 1
 c443: x50 + x66 <= 1
 c444: x50 + x72 - y50_72 <= 1
 c445: x50 + x93 <= 1
 c446: x50 + x107 - y50_107 <= 1
 c447: x50 + x108 - y50_108 <= 1
 c448: x51 + x52 - y51_52 <= 1
 c449: x51 + x57 - y51_57 <= 1
 c450: x51 + x72 - y51_72 <= 1
 c451: x51 + x81 - y51_81 <= 1
 c452: x51 + x83 <= 1
 c453: x51 + x96 - y51_96 <= 1
 c454: x51 + x100 - y51_100 <= 1
 c455: x51 + x102 - y51_102 <= 1
 c456: x51 + x104 - y51_104 <= 1
 c457: x52 + x67 - y52_67 <= 1
 c458: x52 + x73 - y52_73 <= 1
 c459: x52 + x82 - y52_82 <= 1
 c460: x52 + x91 - y52_91 <= 1
 c461: x52 + x100 - y52_100 <= 1
 c462: x53 + x72 - y53_72 <= 1
 c463: x53 + x75 - y53_75 <= 1
 c464: x53 + x77 <= 1
 c465: x53 + x83 - y53_83 <= 1
 c466: x53 + x88 - y53_88 <= 1
 c467: x53 + x103 - y53_103 <= 1
 c468: x53 + x106 - y53_106 <= 1
 c469: x54 + x70 <= 1
 c470: x54 + x75 - y54_75 <= 1
 c471: x54 + x90 - y54_90 <= 1
 c472: x54 + x91 - y54_91 <= 1
 c473: x54 + x92 <= 1
 c474: x54 + x94 - y54_94 <= 1
 c475: x55 + x80 - y55_80 <= 1
 c476: x55 + x87 - y55_87 <= 1
 c477: x55 + x105 - y55_105 <= 1
 c478: x56 + x84 - y56_84 <= 1
 c479: x56 + x85 - y56_85 <= 1
 c480: x56 + x90 - y56_90 <= 1
 c481: x56 + x108 - y56_108 <= 1
 c482: x57 + x59 - y57_59 <= 1
 c483: x57 + x63 - y57_63 <= 1
 c484: x57 + x70 - y57_70 <= 1
 c485: x57 + x76 - y57_76 <= 1
 c486: x57 + x83 <= 1
 c487: x57 + x84 - y57_84 <= 1
 c488: x57 + x102 - y57_102 <= 1
 c489: x57 + x105 <= 1
 c490: x57 + x107 - y57_107 <= 1
 c491: x58 + x63 - y58_63 <= 1
 c492: x58 + x67 <= 1
 c493: x58 + x82 - y58_82 <= 1
 c494: x58 + x92 - y58_92 <= 1
 c495: x58 + x101 - y58_101 <= 1
 c496: x59 + x86 <= 1
 c497: x59 + x87 - y59_87 <= 1
 c498: x59 + x94 <= 1
 c499: x60 + x87 - y60_87 <= 1
 c500: x60 + x93 - y60_93 <= 1
 c501: x60 + x106 - y60_106 <= 1
 c502: x61 + x71 - y61_71 <= 1
 c503: x61 + x81 - y61_81 <= 1
 c504: x61 + x99 - y61_99 <= 1
 c505: x62 + x71 - y62_71 <= 1
 c506: x62 + x79 - y62_79 <= 1
 c507: x62 + x103 - y62_103 <= 1
 c508: x63 + x64 - y63_64 <= 1
 c509: x63 + x72 - y63_72 <= 1
 c510: x63 + x92 - y63_92 <= 1
 c511: x63 + x93 - y63_93 <= 1
 c512: x63 + x98 - y63_98 <= 1
 c513: x63 + x107 - y63_107 <= 1
 c514: x64 + x80 - y64_80 <= 1
 c515: x64 + x92 - y64_92 <= 1
 c516: x64 + x102 <= 1
 c517: x65 + x66 - y65_66 <= 1
 c518: x65 + x73 - y65_73 <= 1
 c519: x65 + x77 - y65_77 <= 1
 c520: x65 + x97 - y65_97 <= 1
 c521: x65 + x104 - y65_104 <= 1
 c522: x66 + x67 <= 1
 c523: x66 + x74 - y66_74 <= 1
 c524: x66 + x79 - y66_79 <= 1
 c525: x66 + x96 - y66_96 <= 1
 c526: x66 + x100 - y66_100 <= 1
 c527: x66 + x103 <= 1
 c528: x66 + x107 - y66_107 <= 1
 c529: x67 + x70 <= 1
 c530: x67 + x83 - y67_83 <= 1
 c531: x67 + x94 <= 1
 c532: x68 + x73 <= 1
 c533: x68 + x77 - y68_77 <= 1
 c534: x69 + x79 <= 1
 c535: x70 + x74 - y70_74 <= 1
 c536: x70 + x86 - y70_86 <= 1
 c537: x70 + x93 - y70_93 <= 1
 c538: x70 + x101 - y70_101 <= 1
 c539: x70 + x105 - y70_105 <= 1
 c540: x71 + x72 - y71_72 <= 1
 c541: x71 + x77 - y71_77 <= 1
 c542: x71 + x78 - y71_78 <= 1
 c543: x71 + x88 - y71_88 <= 1
 c544: x71 + x91 - y71_91 <= 1
 c545: x71 + x107 - y71_107 <= 1
 c546: x72 + x76 - y72_76 <= 1
 c547: x72 + x84 - y72_84 <= 1
 c548: x72 + x94 - y72_94 <= 1
 c549: x73 + x74 - y73_74 <= 1
 c550: x73 + x82 - y73_82 <= 1
 c551: x73 + x90 - y73_90 <= 1
 c552: x73 + x93 - y73_93 <= 1
 c553: x73 + x100 - y73_100 <= 1
 c554: x73 + x101 - y73_101 <= 1
 c555: x74 + x81 - y74_81 <= 1
 c556: x74 + x88 - y74_88 <= 1
 c557: x75 + x81 - y75_81 <= 1
 c558: x75 + x87 - y75_87 <= 1
 c559: x75 + x91 - y75_91 <= 1
 c560: x75 + x103 - y75_103 <= 1
 c561: x76 + x83 - y76_83 <= 1
 c562: x76 + x102 - y76_102 <= 1
 c563: x77 + x78 - y77_78 <= 1
 c564: x77 + x88 - y77_88 <= 1
 c565: x78 + x82 <= 1
 c566: x78 + x88 - y78_88 <= 1
 c567: x78 + x90 - y78_90 <= 1
 c568: x78 + x91 - y78_91 <= 1
 c569: x78 + x92 - y78_92 <= 1
 c570: x78 + x103 - y78_103 <= 1
 c571: x79 + x92 - y79_92 <= 1
 c572: x79 + x98 <= 1
 c573: x80 + x85 - y80_85 <= 1
 c574: x80 + x92 - y80_92 <= 1
 c575: x80 + x101 - y80_101 <= 1
 c576: x80 + x104 <= 1
 c577: x81 + x82 - y81_82 <= 1
 c578: x81 + x99 - y81_99 <= 1
 c579: x81 + x102 - y81_102 <= 1
 c580: x82 + x93 - y82_93 <= 1
 c581: x82 + x100 <= 1
 c582: x82 + x104 - y82_104 <= 1
 c583: x82 + x105 - y82_105 <= 1
 c584: x83 + x95 - y83_95 <= 1
 c585: x83 + x100 - y83_100 <= 1
 c586: x83 + x107 - y83_107 <= 1
 c587: x84 + x91 - y84_91 <= 1
 c588: x84 + x105 <= 1
 c589: x85 + x86 - y85_86 <= 1
 c590: x85 + x92 - y85_92 <= 1
 c591: x85 + x107 - y85_107 <= 1
 c592: x85 + x108 - y85_108 <= 1
 c593: x86 + x91 - y86_91 <= 1
 c594: x86 + x98 - y86_98 <= 1
 c595: x87 + x91 <= 1
 c596: x87 + x93 - y87_93 <= 1
 c597: x87 + x94 <= 1
 c598: x87 + x106 - y87_106 <= 1
 c599: x88 + x90 - y88_90 <= 1
 c600: x89 + x102 - y89_102 <= 1
 c601: x90 + x91 - y90_91 <= 1
 c602: x91 + x94 <= 1
 c603: x91 + x95 <= 1
 c604: x91 + x101 - y91_101 <= 1
 c605: x92 + x103 - y92_103 <= 1
 c606: x92 + x104 - y92_104 <= 1
 c607: x92 + x108 <= 1
 c608: x94 + x96 - y94_96 <= 1
 c609: x95 + x98 - y95_98 <= 1
 c610: x95 + x102 - y95_102 <= 1
 c611: x97 + x104 - y97_104 <= 1
 c612: x98 + x105 - y98_105 <= 1
 c613: x101 + x103 - y101_103 <= 1
 c614: x104 + x107 - y104_107 <= 1
 c615: x105 + x107 - y105_107 <= 1
Bounds
 0 <= x0 <= 1
 0 <= x1 <= 1
 0 <= x2 <= 1
 0 <= x3 <= 1
 0 <= x4 <= 1
 0 <= x5 <= 1
 0 <= x6 <= 1
 0 <= x7 <= 1
 0 <= x8 <= 1
 0 <= x9 <= 1
 0 <= x10 <= 1
 0 <= x11 <= 1
 0 <= x12 <= 1
 0 <= x13 <= 1
 0 <= x14 <= 1
 0 <= x15 <= 1
 0 <= x16 <= 1
 0 <= x17 <= 1
 0 <= x18 <= 1
 0 <= x19 <= 1
 0 <= x20 <= 1
 0 <= x21 <= 1
 0 <= x22 <= 1
 0 <= x23 <= 1
 0 <= x24 <= 1
 0 <= x25 <= 1
 0 <= x26 <= 1
 0 <= x27 <= 1
 0 <= x28 <= 1
 0 <= x29 <= 1
 0 <= x30 <= 1
 0 <= x31 <= 1
 0 <= x32 <= 1
 0 <= x33 <= 1
 0 <= x34 <= 1
 0 <= x35 <= 1
 0 <= x36 <= 1
 0 <= x37 <= 1
 0 <= x38 <= 1
 0 <= x39 <= 1
 0 <= x40 <= 1
 0 <= x41 <= 1
 0 <= x42 <= 1
 0 <= x43 <= 1
 0 <= x44 <= 1
 0 <= x45 <= 1
 0 <= x46 <= 1
 0 <= x47 <= 1
 0 <= x48 <= 1
 0 <= x49 <= 1
 0 <= x50 <= 1
 0 <= x51 <= 1
 0 <= x52 <= 1
 0 <= x53 <= 1
 0 <= x54 <= 1
 0 <= x55 <= 1
 0 <= x56 <= 1
 0 <= x57 <= 1
 0 <= x58 <= 1
 0 <= x59 <= 1
 0 <= x60 <= 1
 0 <= x61 <= 1
 0 <= x62 <= 1
 0 <= x63 <= 1
 0 <= x64 <= 1
 0 <= x65 <= 1
 0 <= x66 <= 1
 0 <= x67 <= 1
 0 <= x68 <= 1
 0 <= x69 <= 1
 0 <= x70 <= 1
 0 <= x71 <= 1
 0 <= x72 <= 1
 0 <= x73 <= 1
 0 <= x74 <= 1
 0 <= x75 <= 1
 0 <= x76 <= 1
 0 <= x77 <= 1
 0 <= x78 <= 1
 0 <= x79 <= 1
 0 <= x80 <= 1
 0 <= x81 <= 1
 0 <= x82 <= 1
 0 <= x83 <= 1
 0 <= x84 <= 1
 0 <= x85 <= 1
 0 <= x86 <= 1
 0 <= x87 <= 1
 0 <= x88 <= 1
 0 <= x89 <= 1
 0 <= x90 <= 1
 0 <= x91 <= 1
 0 <= x92 <= 1
 0 <= x93 <= 1
 0 <= x94 <= 1
 0 <= x95 <= 1
 0 <= x96 <= 1
 0 <= x97 <= 1
 0 <= x98 <= 1
 0 <= x99 <= 1
 0 <= x100 <= 1
 0 <= x101 <= 1
 0 <= x102 <= 1
 0 <= x103 <= 1
 0 <= x104 <= 1
 0 <= x105 <= 1
 0 <= x106 <= 1
 0 <= x107 <= 1
 0 <= x108 <= 1
 0 <= y35_88 <= 1
 0 <= y4_36 <= 1
 0 <= y11_90 <= 1
 0 <= y73_82 <= 1
 0 <= y7_55 <= 1
 0 <= y28_88 <= 1
 0 <= y42_62 <= 1
 0 <= y55_80 <= 1
 0 <= y4_104 <= 1
 0 <= y39_45 <= 1
 0 <= y26_98 <= 1
 0 <= y47_93 <= 1
 0 <= y53_106 <= 1
 0 <= y71_78 <= 1
 0 <= y1_54 <= 1
 0 <= y25_49 <= 1
 0 <= y43_98 <= 1
 0 <= y0_45 <= 1
 0 <= y57_59 <= 1
 0 <= y4_35 <= 1
 0 <= y95_98 <= 1
 0 <= y24_73 <= 1
 0 <= y34_41 <= 1
 0 <= y52_67 <= 1
 0 <= y15_103 <= 1
 0 <= y56_108 <= 1
 0 <= y20_82 <= 1
 0 <= y1_21 <= 1
 0 <= y80_85 <= 1
 0 <= y44_107 <= 1
 0 <= y91_101 <= 1
 0 <= y8_45 <= 1
 0 <= y50_108 <= 1
 0 <= y24_80 <= 1
 0 <= y23_40 <= 1
 0 <= y17_24 <= 1
 0 <= y13_44 <= 1
 0 <= y77_88 <= 1
 0 <= y42_74 <= 1
 0 <= y14_19 <= 1
 0 <= y51_100 <= 1
 0 <= y41_94 <= 1
 0 <= y46_85 <= 1
 0 <= y18_72 <= 1
 0 <= y4_11 <= 1
 0 <= y60_93 <= 1
 0 <= y25_37 <= 1
 0 <= y2_33 <= 1
 0 <= y5_20 <= 1
 0 <= y82_104 <= 1
 0 <= y8_58 <= 1
 0 <= y23_31 <= 1
 0 <= y54_91 <= 1
 0 <= y24_99 <= 1
 0 <= y17_77 <= 1
 0 <= y13_63 <= 1
 0 <= y5_105 <= 1
 0 <= y47_86 <= 1
 0 <= y17_103 <= 1
 0 <= y13_25 <= 1
 0 <= y0_50 <= 1
 0 <= y46_70 <= 1
 0 <= y55_105 <= 1
 0 <= y51_57 <= 1
 0 <= y73_100 <= 1
 0 <= y70_101 <= 1
 0 <= y25_80 <= 1
 0 <= y2_82 <= 1
 0 <= y76_102 <= 1
 0 <= y9_60 <= 1
 0 <= y72_94 <= 1
 0 <= y1_70 <= 1
 0 <= y2_76 <= 1
 0 <= y5_72 <= 1
 0 <= y13_56 <= 1
 0 <= y31_82 <= 1
 0 <= y20_85 <= 1
 0 <= y41_72 <= 1
 0 <= y58_101 <= 1
 0 <= y19_67 <= 1
 0 <= y85_107 <= 1
 0 <= y62_103 <= 1
 0 <= y71_72 <= 1
 0 <= y43_100 <= 1
 0 <= y94_96 <= 1
 0 <= y46_51 <= 1
 0 <= y9_67 <= 1
 0 <= y23_55 <= 1
 0 <= y1_95 <= 1
 0 <= y63_93 <= 1
 0 <= y15_97 <= 1
 0 <= y10_22 <= 1
 0 <= y56_84 <= 1
 0 <= y7_85 <= 1
 0 <= y12_96 <= 1
 0 <= y60_106 <= 1
 0 <= y16_99 <= 1
 0 <= y25_56 <= 1
 0 <= y21_66 <= 1
 0 <= y44_101 <= 1
 0 <= y33_72 <= 1
 0 <= y5_15 <= 1
 0 <= y20_41 <= 1
 0 <= y45_95 <= 1
 0 <= y32_60 <= 1
 0 <= y29_60 <= 1
 0 <= y70_105 <= 1
 0 <= y72_76 <= 1
 0 <= y17_30 <= 1
 0 <= y79_92 <= 1
 0 <= y51_102 <= 1
 0 <= y12_31 <= 1
 0 <= y44_92 <= 1
 0 <= y59_87 <= 1
 0 <= y6_7 <= 1
 0 <= y26_32 <= 1
 0 <= y21_31 <= 1
 0 <= y2_89 <= 1
 0 <= y0_73 <= 1
 0 <= y31_35 <= 1
 0 <= y48_83 <= 1
 0 <= y29_47 <= 1
 0 <= y55_87 <= 1
 0 <= y1_101 <= 1
 0 <= y22_104 <= 1
 0 <= y65_73 <= 1
 0 <= y26_103 <= 1
 0 <= y46_98 <= 1
 0 <= y9_108 <= 1
 0 <= y23_100 <= 1
 0 <= y30_97 <= 1
 0 <= y7_97 <= 1
 0 <= y20_63 <= 1
 0 <= y12_108 <= 1
 0 <= y71_77 <= 1
 0 <= y57_76 <= 1
 0 <= y34_86 <= 1
 0 <= y32_74 <= 1
 0 <= y63_98 <= 1
 0 <= y71_107 <= 1
 0 <= y6_16 <= 1
 0 <= y63_72 <= 1
 0 <= y88_90 <= 1
 0 <= y78_90 <= 1
 0 <= y38_44 <= 1
 0 <= y4_84 <= 1
 0 <= y43_51 <= 1
 0 <= y64_92 <= 1
 0 <= y65_66 <= 1
 0 <= y40_108 <= 1
 0 <= y41_80 <= 1
 0 <= y12_107 <= 1
 0 <= y21_71 <= 1
 0 <= y34_81 <= 1
 0 <= y84_91 <= 1
 0 <= y63_107 <= 1
 0 <= y62_79 <= 1
 0 <= y9_65 <= 1
 0 <= y25_95 <= 1
 0 <= y57_63 <= 1
 0 <= y4_47 <= 1
 0 <= y87_93 <= 1
 0 <= y8_42 <= 1
 0 <= y7_18 <= 1
 0 <= y48_65 <= 1
 0 <= y12_95 <= 1
 0 <= y6_45 <= 1
 0 <= y9_13 <= 1
 0 <= y75_81 <= 1
 0 <= y90_91 <= 1
 0 <= y49_93 <= 1
 0 <= y31_69 <= 1
 0 <= y76_83 <= 1
 0 <= y24_25 <= 1
 0 <= y3_105 <= 1
 0 <= y17_87 <= 1
 0 <= y12_98 <= 1
 0 <= y15_55 <= 1
 0 <= y28_29 <= 1
 0 <= y85_92 <= 1
 0 <= y33_78 <= 1
 0 <= y48_98 <= 1
 0 <= y45_93 <= 1
 0 <= y19_22 <= 1
 0 <= y2_34 <= 1
 0 <= y37_64 <= 1
 0 <= y1_86 <= 1
 0 <= y72_84 <= 1
 0 <= y4_90 <= 1
 0 <= y18_53 <= 1
 0 <= y51_104 <= 1
 0 <= y0_25 <= 1
 0 <= y5_108 <= 1
 0 <= y23_105 <= 1
 0 <= y66_74 <= 1
 0 <= y65_104 <= 1
 0 <= y51_52 <= 1
 0 <= y66_100 <= 1
 0 <= y38_101 <= 1
 0 <= y34_93 <= 1
 0 <= y43_106 <= 1
 0 <= y22_56 <= 1
 0 <= y98_105 <= 1
 0 <= y3_32 <= 1
 0 <= y2_87 <= 1
 0 <= y15_75 <= 1
 0 <= y32_43 <= 1
 0 <= y27_69 <= 1
 0 <= y49_79 <= 1
 0 <= y11_49 <= 1
 0 <= y74_81 <= 1
 0 <= y3_87 <= 1
 0 <= y13_59 <= 1
 0 <= y20_74 <= 1
 0 <= y7_69 <= 1
 0 <= y33_102 <= 1
 0 <= y1_29 <= 1
 0 <= y65_97 <= 1
 0 <= y8_86 <= 1
 0 <= y105_107 <= 1
 0 <= y10_84 <= 1
 0 <= y25_84 <= 1
 0 <= y45_105 <= 1
 0 <= y26_88 <= 1
 0 <= y6_40 <= 1
 0 <= y39_90 <= 1
 0 <= y31_48 <= 1
 0 <= y78_88 <= 1
 0 <= y74_88 <= 1
 0 <= y3_92 <= 1
 0 <= y28_76 <= 1
 0 <= y1_22 <= 1
 0 <= y44_76 <= 1
 0 <= y7_88 <= 1
 0 <= y41_86 <= 1
 0 <= y43_88 <= 1
 0 <= y14_87 <= 1
 0 <= y12_67 <= 1
 0 <= y9_71 <= 1
 0 <= y75_103 <= 1
 0 <= y8_44 <= 1
 0 <= y12_89 <= 1
 0 <= y27_83 <= 1
 0 <= y73_93 <= 1
 0 <= y52_73 <= 1
 0 <= y9_51 <= 1
 0 <= y53_83 <= 1
 0 <= y28_75 <= 1
 0 <= y9_21 <= 1
 0 <= y28_97 <= 1
 0 <= y12_28 <= 1
 0 <= y53_103 <= 1
 0 <= y8_68 <= 1
 0 <= y58_82 <= 1
 0 <= y28_31 <= 1
 0 <= y71_91 <= 1
 0 <= y57_70 <= 1
 0 <= y66_107 <= 1
 0 <= y2_90 <= 1
 0 <= y13_76 <= 1
 0 <= y54_90 <= 1
 0 <= y49_84 <= 1
 0 <= y11_58 <= 1
 0 <= y52_100 <= 1
 0 <= y22_85 <= 1
 0 <= y46_95 <= 1
 0 <= y46_65 <= 1
 0 <= y20_60 <= 1
 0 <= y18_92 <= 1
 0 <= y21_49 <= 1
 0 <= y73_101 <= 1
 0 <= y32_55 <= 1
 0 <= y61_81 <= 1
 0 <= y27_33 <= 1
 0 <= y33_54 <= 1
 0 <= y36_69 <= 1
 0 <= y86_91 <= 1
 0 <= y35_40 <= 1
 0 <= y38_41 <= 1
 0 <= y3_89 <= 1
 0 <= y65_77 <= 1
 0 <= y67_83 <= 1
 0 <= y85_108 <= 1
 0 <= y24_53 <= 1
 0 <= y25_48 <= 1
 0 <= y4_6 <= 1
 0 <= y87_106 <= 1
 0 <= y34_82 <= 1
 0 <= y85_86 <= 1
 0 <= y82_93 <= 1
 0 <= y36_76 <= 1
 0 <= y8_39 <= 1
 0 <= y11_82 <= 1
 0 <= y29_36 <= 1
 0 <= y73_90 <= 1
 0 <= y53_72 <= 1
 0 <= y64_80 <= 1
 0 <= y28_100 <= 1
 0 <= y24_60 <= 1
 0 <= y47_67 <= 1
 0 <= y46_53 <= 1
 0 <= y61_99 <= 1
 0 <= y70_86 <= 1
 0 <= y47_48 <= 1
 0 <= y22_34 <= 1
 0 <= y40_43 <= 1
 0 <= y39_77 <= 1
 0 <= y1_81 <= 1
 0 <= y29_87 <= 1
 0 <= y19_104 <= 1
 0 <= y44_47 <= 1
 0 <= y42_75 <= 1
 0 <= y38_61 <= 1
 0 <= y10_16 <= 1
 0 <= y17_75 <= 1
 0 <= y56_90 <= 1
 0 <= y41_93 <= 1
 0 <= y66_79 <= 1
 0 <= y46_60 <= 1
 0 <= y38_102 <= 1
 0 <= y25_78 <= 1
 0 <= y82_105 <= 1
 0 <= y52_82 <= 1
 0 <= y8_59 <= 1
 0 <= y63_64 <= 1
 0 <= y48_82 <= 1
 0 <= y37_39 <= 1
 0 <= y38_52 <= 1
 0 <= y12_63 <= 1
 0 <= y29_100 <= 1
 0 <= y0_29 <= 1
 0 <= y42_92 <= 1
 0 <= y46_93 <= 1
 0 <= y83_107 <= 1
 0 <= y10_101 <= 1
 0 <= y57_107 <= 1
 0 <= y44_90 <= 1
 0 <= y33_91 <= 1
 0 <= y89_102 <= 1
 0 <= y3_30 <= 1
 0 <= y66_96 <= 1
 0 <= y8_83 <= 1
 0 <= y3_36 <= 1
 0 <= y62_71 <= 1
 0 <= y81_82 <= 1
 0 <= y95_102 <= 1
 0 <= y31_41 <= 1
 0 <= y35_42 <= 1
 0 <= y6_53 <= 1
 0 <= y35_48 <= 1
 0 <= y16_56 <= 1
 0 <= y6_79 <= 1
 0 <= y45_58 <= 1
 0 <= y23_98 <= 1
 0 <= y44_81 <= 1
 0 <= y23_88 <= 1
 0 <= y70_93 <= 1
 0 <= y1_45 <= 1
 0 <= y58_63 <= 1
 0 <= y32_38 <= 1
 0 <= y97_104 <= 1
 0 <= y11_84 <= 1
 0 <= y49_68 <= 1
 0 <= y13_86 <= 1
 0 <= y37_41 <= 1
 0 <= y63_92 <= 1
 0 <= y78_92 <= 1
 0 <= y49_94 <= 1
 0 <= y28_72 <= 1
 0 <= y44_50 <= 1
 0 <= y10_23 <= 1
 0 <= y51_96 <= 1
 0 <= y56_85 <= 1
 0 <= y44_72 <= 1
 0 <= y83_95 <= 1
 0 <= y92_104 <= 1
 0 <= y14_91 <= 1
 0 <= y20_42 <= 1
 0 <= y18_102 <= 1
 0 <= y50_107 <= 1
 0 <= y6_39 <= 1
 0 <= y81_102 <= 1
 0 <= y7_38 <= 1
 0 <= y14_103 <= 1
 0 <= y27_77 <= 1
 0 <= y75_87 <= 1
 0 <= y17_55 <= 1
 0 <= y24_31 <= 1
 0 <= y41_67 <= 1
 0 <= y83_100 <= 1
 0 <= y68_77 <= 1
 0 <= y0_62 <= 1
 0 <= y92_103 <= 1
 0 <= y18_97 <= 1
 0 <= y45_87 <= 1
 0 <= y80_101 <= 1
 0 <= y86_98 <= 1
 0 <= y11_66 <= 1
 0 <= y104_107 <= 1
 0 <= y24_90 <= 1
 0 <= y16_23 <= 1
 0 <= y39_68 <= 1
 0 <= y4_58 <= 1
 0 <= y73_74 <= 1
 0 <= y9_56 <= 1
 0 <= y53_88 <= 1
 0 <= y54_94 <= 1
 0 <= y51_72 <= 1
 0 <= y0_96 <= 1
 0 <= y77_78 <= 1
 0 <= y17_100 <= 1
 0 <= y44_84 <= 1
 0 <= y60_87 <= 1
 0 <= y80_92 <= 1
 0 <= y2_55 <= 1
 0 <= y34_49 <= 1
 0 <= y52_91 <= 1
 0 <= y13_65 <= 1
 0 <= y48_75 <= 1
 0 <= y61_71 <= 1
 0 <= y33_44 <= 1
 0 <= y39_91 <= 1
 0 <= y51_81 <= 1
 0 <= y101_103 <= 1
 0 <= y13_91 <= 1
 0 <= y78_91 <= 1
 0 <= y20_106 <= 1
 0 <= y75_91 <= 1
 0 <= y53_75 <= 1
 0 <= y54_75 <= 1
 0 <= y22_96 <= 1
 0 <= y20_80 <= 1
 0 <= y6_103 <= 1
 0 <= y78_103 <= 1
 0 <= y7_89 <= 1
 0 <= y57_84 <= 1
 0 <= y4_40 <= 1
 0 <= y2_40 <= 1
 0 <= y24_78 <= 1
 0 <= y81_99 <= 1
 0 <= y30_63 <= 1
 0 <= y50_72 <= 1
 0 <= y17_60 <= 1
 0 <= y44_74 <= 1
 0 <= y33_107 <= 1
 0 <= y45_66 <= 1
 0 <= y19_51 <= 1
 0 <= y43_94 <= 1
 0 <= y26_58 <= 1
 0 <= y70_74 <= 1
 0 <= y71_88 <= 1
 0 <= y9_73 <= 1
 0 <= y34_67 <= 1
 0 <= y27_79 <= 1
 0 <= y10_50 <= 1
 0 <= y19_108 <= 1
 0 <= y20_102 <= 1
 0 <= y14_20 <= 1
 0 <= y17_79 <= 1
 0 <= y7_79 <= 1
 0 <= y5_107 <= 1
 0 <= y57_102 <= 1
 0 <= y58_92 <= 1
 0 <= y13_27 <= 1
 0 <= y33_70 <= 1
 0 <= y4_30 <= 1
Binaries
 x0  x1  x2  x3  x4  x5  x6  x7  x8  x9  x10  x11  x12  x13  x14  x15  x16 
 x17  x18  x19  x20  x21  x22  x23  x24  x25  x26  x27  x28  x29  x30  x31 
 x32  x33  x34  x35  x36  x37  x38  x39  x40  x41  x42  x43  x44  x45  x46 
 x47  x48  x49  x50  x51  x52  x53  x54  x55  x56  x57  x58  x59  x60  x61 
 x62  x63  x64  x65  x66  x67  x68  x69  x70  x71  x72  x73  x74  x75  x76 
 x77  x78  x79  x80  x81  x82  x83  x84  x85  x86  x87  x88  x89  x90  x91 
 x92  x93  x94  x95  x96  x97  x98  x99  x100  x101  x102  x103  x104  x105 
 x106  x107  x108  y35_88  y4_36  y11_90  y73_82  y7_55  y28_88  y42_62 
 y55_80  y4_104  y39_45  y26_98  y47_93  y53_106  y71_78  y1_54  y25_49 
 y43_98  y0_45  y57_59  y4_35  y95_98  y24_73  y34_41  y52_67  y15_103 
 y56_108  y20_82  y1_21  y80_85  y44_107  y91_101  y8_45  y50_108  y24_80 
 y23_40  y17_24  y13_44  y77_88  y42_74  y14_19  y51_100  y41_94  y46_85 
 y18_72  y4_11  y60_93  y25_37  y2_33  y5_20  y82_104  y8_58  y23_31  y54_91 
 y24_99  y17_77  y13_63  y5_105  y47_86  y17_103  y13_25  y0_50  y46_70 
 y55_105  y51_57  y73_100  y70_101  y25_80  y2_82  y76_102  y9_60  y72_94 
 y1_70  y2_76  y5_72  y13_56  y31_82  y20_85  y41_72  y58_101  y19_67  y85_107 
 y62_103  y71_72  y43_100  y94_96  y46_51  y9_67  y23_55  y1_95  y63_93 
 y15_97  y10_22  y56_84  y7_85  y12_96  y60_106  y16_99  y25_56  y21_66 
 y44_101  y33_72  y5_15  y20_41  y45_95  y32_60  y29_60  y70_105  y72_76 
 y17_30  y79_92  y51_102  y12_31  y44_92  y59_87  y6_7  y26_32  y21_31  y2_89 
 y0_73  y31_35  y48_83  y29_47  y55_87  y1_101  y22_104  y65_73  y26_103 
 y46_98  y9_108  y23_100  y30_97  y7_97  y20_63  y12_108  y71_77  y57_76 
 y34_86  y32_74  y63_98  y71_107  y6_16  y63_72  y88_90  y78_90  y38_44  y4_84 
 y43_51  y64_92  y65_66  y40_108  y41_80  y12_107  y21_71  y34_81  y84_91 
 y63_107  y62_79  y9_65  y25_95  y57_63  y4_47  y87_93  y8_42  y7_18  y48_65 
 y12_95  y6_45  y9_13  y75_81  y90_91  y49_93  y31_69  y76_83  y24_25  y3_105 
 y17_87  y12_98  y15_55  y28_29  y85_92  y33_78  y48_98  y45_93  y19_22  y2_34 
 y37_64  y1_86  y72_84  y4_90  y18_53  y51_104  y0_25  y5_108  y23_105  y66_74 
 y65_104  y51_52  y66_100  y38_101  y34_93  y43_106  y22_56  y98_105  y3_32 
 y2_87  y15_75  y32_43  y27_69  y49_79  y11_49  y74_81  y3_87  y13_59  y20_74 
 y7_69  y33_102  y1_29  y65_97  y8_86  y105_107  y10_84  y25_84  y45_105 
 y26_88  y6_40  y39_90  y31_48  y78_88  y74_88  y3_92  y28_76  y1_22  y44_76 
 y7_88  y41_86  y43_88  y14_87  y12_67  y9_71  y75_103  y8_44  y12_89  y27_83 
 y73_93  y52_73  y9_51  y53_83  y28_75  y9_21  y28_97  y12_28  y53_103  y8_68 
 y58_82  y28_31  y71_91  y57_70  y66_107  y2_90  y13_76  y54_90  y49_84 
 y11_58  y52_100  y22_85  y46_95  y46_65  y20_60  y18_92  y21_49  y73_101 
 y32_55  y61_81  y27_33  y33_54  y36_69  y86_91  y35_40  y38_41  y3_89  y65_77 
 y67_83  y85_108  y24_53  y25_48  y4_6  y87_106  y34_82  y85_86  y82_93 
 y36_76  y8_39  y11_82  y29_36  y73_90  y53_72  y64_80  y28_100  y24_60 
 y47_67  y46_53  y61_99  y70_86  y47_48  y22_34  y40_43  y39_77  y1_81  y29_87 
 y19_104  y44_47  y42_75  y38_61  y10_16  y17_75  y56_90  y41_93  y66_79 
 y46_60  y38_102  y25_78  y82_105  y52_82  y8_59  y63_64  y48_82  y37_39 
 y38_52  y12_63  y29_100  y0_29  y42_92  y46_93  y83_107  y10_101  y57_107 
 y44_90  y33_91  y89_102  y3_30  y66_96  y8_83  y3_36  y62_71  y81_82  y95_102 
 y31_41  y35_42  y6_53  y35_48  y16_56  y6_79  y45_58  y23_98  y44_81  y23_88 
 y70_93  y1_45  y58_63  y32_38  y97_104  y11_84  y49_68  y13_86  y37_41 
 y63_92  y78_92  y49_94  y28_72  y44_50  y10_23  y51_96  y56_85  y44_72 
 y83_95  y92_104  y14_91  y20_42  y18_102  y50_107  y6_39  y81_102  y7_38 
 y14_103  y27_77  y75_87  y17_55  y24_31  y41_67  y83_100  y68_77  y0_62 
 y92_103  y18_97  y45_87  y80_101  y86_98  y11_66  y104_107  y24_90  y16_23 
 y39_68  y4_58  y73_74  y9_56  y53_88  y54_94  y51_72  y0_96  y77_78  y17_100 
 y44_84  y60_87  y80_92  y2_55  y34_49  y52_91  y13_65  y48_75  y61_71  y33_44 
 y39_91  y51_81  y101_103  y13_91  y78_91  y20_106  y75_91  y53_75  y54_75 
 y22_96  y20_80  y6_103  y78_103  y7_89  y57_84  y4_40  y2_40  y24_78  y81_99 
 y30_63  y50_72  y17_60  y44_74  y33_107  y45_66  y19_51  y43_94  y26_58 
 y70_74  y71_88  y9_73  y34_67  y27_79  y10_50  y19_108  y20_102  y14_20 
 y17_79  y7_79  y5_107  y57_102  y58_92  y13_27  y33_70  y4_30 
End
